
Gurobi 11.0.2 (linux64) logging started Tue 03 Dec 2024 09:05:29 AM CET

Set parameter LogFile to value "./res/knapPI_11_50_1000/knapPI_11_50_1000_49/grb_dom.log"
Set parameter Presolve to value 0
Set parameter Aggregate to value 0
Set parameter Heuristics to value 0
Set parameter LPWarmStart to value 0
Set parameter NLPHeur to value 0
Set parameter PreDepRow to value 0
Set parameter PreDual to value 0
Set parameter RINS to value 0
Set parameter Symmetry to value 0
Set parameter NodeLimit to value 1
Set parameter Threads to value 1

Gurobi 11.0.2 (linux64) logging started Tue 03 Dec 2024 09:05:31 AM CET

Set parameter LogFile to value "./res/knapPI_11_50_1000/knapPI_11_50_1000_49/grb_dom.log"
Set parameter NLPHeur to value 0
Set parameter LPWarmStart to value 0
Set parameter PreDepRow to value 0
Set parameter Symmetry to value 0
Set parameter Presolve to value 0
Gurobi Optimizer version 11.0.2 build v11.0.2rc0 (linux64 - "Pop!_OS 20.04 LTS")

CPU model: Intel(R) Core(TM) i7-8650U CPU @ 1.90GHz, instruction set [SSE2|AVX|AVX2]
Thread count: 4 physical cores, 4 logical processors, using up to 1 threads

Optimize a model with 16624 rows, 50 columns and 263407 nonzeros
Model fingerprint: 0x2c0d77ee
Variable types: 0 continuous, 50 integer (50 binary)
Coefficient statistics:
  Matrix range     [1e+00, 2e+03]
  Objective range  [4e+01, 5e+02]
  Bounds range     [0e+00, 0e+00]
  RHS range        [2e+04, 2e+04]
Variable types: 0 continuous, 50 integer (50 binary)

Root relaxation: objective 4.991117e+03, 2 iterations, 0.06 seconds (0.01 work units)

    Nodes    |    Current Node    |     Objective Bounds      |     Work
 Expl Unexpl |  Obj  Depth IntInf | Incumbent    BestBd   Gap | It/Node Time

     0     0 4991.11675    0    1          - 4991.11675      -     -    0s
     0     0 4991.11675    0    1          - 4991.11675      -     -    0s
     0     0 4991.11675    0    1          - 4991.11675      -     -    0s
     0     0 4991.11675    0    4          - 4991.11675      -     -    0s
     0     0 4991.11675    0    1          - 4991.11675      -     -    0s
     0     0 4991.11675    0    3          - 4991.11675      -     -    0s
     0     0 4991.11675    0    3          - 4991.11675      -     -    1s
     0     0 4991.11675    0    3          - 4991.11675      -     -    1s
     0     2 4991.11675    0    3          - 4991.11675      -     -    1s

Cutting planes:
  Cover: 3

Explored 1 nodes (9 simplex iterations) in 1.22 seconds (0.49 work units)
Thread count was 1 (of 4 available processors)

Solution count 0

Node limit reached
Best objective -, best bound 4.990000000000e+03, gap -

User-callback calls 414, time in user-callback 0.00 sec
opt = false
obj = 4991.1168
nb_dom_cuts = 16623
solved_time = 1.2175
opt_val = 4986.0
